8
[-1, 0, 57, 14, 97, 94, 40, 64, 
0, -1, 51, 19, 2, 18, 10, 0, 
57, 51, -1, 51, 0, 45, 0, 91, 
14, 19, 51, -1, 0, 5, 0, 85, 
97, 2, 0, 0, -1, 52, 0, 0, 
94, 18, 45, 5, 52, -1, 80, 35, 
40, 10, 0, 0, 0, 80, -1, 0, 
64, 0, 91, 85, 0, 35, 0, -1]